p cnf 473 2038
1 -2 0
-1 2 0
3 -4 0
-3 4 0
5 -6 0
-5 6 0
5 -7 0
-5 7 0
5 -8 0
-5 8 0
9 -10 0
-9 10 0
11 -12 0
-11 12 0
13 -14 0
-13 14 0
13 -15 0
-13 15 0
13 -16 0
-13 16 0
17 -18 0
-17 18 0
19 -20 0
-19 20 0
19 -21 0
-19 21 0
22 -23 0
-22 23 0
22 -24 0
-22 24 0
-25 -26 0
27 -26 0
25 -28 0
-27 -28 0
25 29 0
-25 -29 0
30 -31 0
-30 31 0
30 -32 0
-30 32 0
33 -34 0
33 -35 0
36 -29 0
-36 29 0
36 -37 0
-36 37 0
36 -38 0
-36 38 0
33 -39 0
36 40 0
-36 -40 0
41 -42 0
-41 42 0
41 -43 0
-41 43 0
41 -44 0
-41 44 0
41 -45 0
-41 45 0
41 -46 0
-41 46 0
41 -47 0
-41 47 0
41 -48 0
-41 48 0
41 -49 0
-41 49 0
41 -50 0
-41 50 0
41 -51 0
-41 51 0
41 -52 0
-41 52 0
41 -53 0
-41 53 0
41 -54 0
-41 54 0
41 -55 0
-41 55 0
41 -56 0
-41 56 0
41 -57 0
-41 57 0
41 -58 0
-41 58 0
41 -59 0
-41 59 0
41 -60 0
-41 60 0
61 -39 0
61 -62 0
61 -63 0
61 -64 0
61 -65 0
61 -66 0
61 -67 0
61 -68 0
61 -69 0
61 -70 0
61 -71 0
61 -72 0
61 -73 0
61 -74 0
61 -75 0
61 -76 0
61 -77 0
61 -78 0
79 -80 0
-79 80 0
79 -40 0
-79 40 0
79 -81 0
-79 81 0
79 -82 0
-79 82 0
79 -83 0
-79 83 0
79 -84 0
-79 84 0
79 -85 0
-79 85 0
79 -86 0
-79 86 0
79 -87 0
-79 87 0
79 -88 0
-79 88 0
79 -89 0
-79 89 0
79 -90 0
-79 90 0
79 -91 0
-79 91 0
79 -92 0
-79 92 0
79 -93 0
-79 93 0
79 -94 0
-79 94 0
79 -95 0
-79 95 0
96 -97 0
-96 97 0
-96 -98 0
-96 -15 0
-99 -98 0
-99 -15 0
-100 -101 0
-100 -20 0
-102 -101 0
-102 -20 0
103 -104 0
-103 104 0
105 -106 0
-105 106 0
107 -108 0
-107 108 0
109 -110 0
-109 110 0
111 -112 0
-111 112 0
-113 -114 0
-113 -115 0
-111 -114 0
-111 -115 0
116 -117 0
-116 117 0
-118 -119 0
-118 -6 0
-120 -119 0
-120 -6 0
-121 -122 0
123 -122 0
121 -124 0
-123 -124 0
123 125 0
-123 -125 0
126 -125 0
-126 125 0
126 -127 0
-126 127 0
126 -128 0
-126 128 0
129 -130 0
129 -131 0
132 -133 0
-132 133 0
132 134 0
-132 -134 0
135 -136 0
-135 136 0
135 -137 0
-135 137 0
135 -138 0
-135 138 0
135 -139 0
-135 139 0
140 -141 0
140 -142 0
140 -143 0
140 -144 0
140 -145 0
140 -146 0
140 -147 0
148 -134 0
-148 134 0
148 -149 0
-148 149 0
148 -150 0
-148 150 0
148 -151 0
-148 151 0
148 -152 0
-148 152 0
148 -153 0
-148 153 0
154 135 0
135 155 0
156 135 0
140 -157 0
-158 140 0
159 148 0
148 160 0
161 148 0
-156 -162 0
158 -163 0
-161 -164 0
-162 -165 0
-162 -166 0
-164 -167 0
-164 -166 0
168 169 0
-168 -169 0
170 171 0
-170 -171 0
-169 -48 0
-171 -112 0
-171 -86 0
172 50 0
173 87 0
-174 -175 0
-174 -7 0
-176 -175 0
-176 -7 0
-155 -177 0
-155 -178 0
-155 -179 0
157 -180 0
-160 -181 0
-160 -182 0
-160 -183 0
179 184 0
180 -185 0
183 186 0
184 187 0
186 188 0
-187 -189 0
-187 -16 0
-188 -189 0
-188 -16 0
-190 -97 0
-190 -57 0
-191 -92 0
-192 -32 0
-193 -194 0
-193 -38 0
-178 -195 0
-178 -104 0
-178 -196 0
-178 -23 0
-182 -197 0
-182 -106 0
-182 -196 0
-182 -23 0
177 198 0
-177 -198 0
181 199 0
-181 -199 0
-198 -200 0
201 -202 0
-199 -203 0
-200 -108 0
-200 -204 0
-203 -110 0
-203 -204 0
205 31 0
206 37 0
207 53 0
208 89 0
-209 -159 0
209 210 0
-209 -210 0
211 212 0
210 213 0
-214 -117 0
-214 -46 0
-215 -84 0
216 217 0
-216 -217 0
218 219 0
-218 -219 0
217 45 0
219 83 0
-220 -221 0
-220 -222 0
223 -224 0
-222 -225 0
-222 -226 0
-222 -227 0
-222 -228 0
224 -229 0
224 -230 0
224 -231 0
224 -232 0
-233 -234 0
-233 -235 0
-233 -236 0
-233 -237 0
238 -228 0
-238 228 0
238 -239 0
-238 239 0
238 -240 0
-238 240 0
241 -232 0
241 -242 0
243 -237 0
-243 237 0
243 -244 0
-243 244 0
-238 -245 0
-238 -246 0
241 -144 0
-144 247 0
-144 -245 0
-243 -245 0
-243 -248 0
246 249 0
-246 -249 0
248 250 0
-248 -250 0
227 251 0
227 252 0
236 253 0
236 254 0
255 -256 0
-255 256 0
255 -257 0
-255 257 0
255 -258 0
-255 258 0
255 -252 0
-255 252 0
259 -260 0
259 -261 0
259 -262 0
263 -264 0
-263 264 0
263 -265 0
-263 265 0
263 -266 0
-263 266 0
263 -254 0
-263 254 0
255 267 0
-255 -267 0
259 -268 0
263 269 0
-263 -269 0
-267 -270 0
268 -77 0
-77 271 0
-269 -272 0
270 273 0
-270 -273 0
272 274 0
-272 -274 0
-273 -8 0
-145 275 0
-145 -8 0
-274 -8 0
276 -277 0
-276 277 0
276 -278 0
-276 278 0
276 -279 0
-276 279 0
276 -280 0
-276 280 0
276 -251 0
-276 251 0
281 -282 0
281 -283 0
281 -284 0
281 -285 0
286 -287 0
-286 287 0
286 -288 0
-286 288 0
286 -289 0
-286 289 0
286 -290 0
-286 290 0
286 -253 0
-286 253 0
276 291 0
276 292 0
286 293 0
286 294 0
-292 -2 0
-143 295 0
-143 -2 0
-294 -2 0
-73 296 0
226 297 0
226 298 0
226 299 0
230 -300 0
230 -301 0
235 302 0
235 303 0
235 304 0
305 -299 0
-305 299 0
305 -306 0
-305 306 0
307 -304 0
-307 304 0
307 -308 0
-307 308 0
307 309 0
-307 -309 0
310 -311 0
-310 311 0
312 -313 0
314 -315 0
-314 315 0
314 -309 0
-314 309 0
-310 -316 0
312 -71 0
-71 317 0
-314 -318 0
316 319 0
-131 -320 0
-131 319 0
318 319 0
-298 -321 0
-303 -322 0
323 -324 0
-323 324 0
323 -321 0
-323 321 0
325 -326 0
327 -328 0
-327 328 0
327 -322 0
-327 322 0
-323 -329 0
325 -62 0
-62 330 0
-327 -331 0
329 332 0
-329 -332 0
331 333 0
-331 -333 0
-332 -10 0
-142 334 0
-142 -10 0
-333 -10 0
-335 -24 0
336 -141 0
-24 -141 0
-337 -24 0
-68 338 0
339 -297 0
-339 297 0
340 -300 0
341 -342 0
-341 342 0
341 -302 0
-341 302 0
339 4 0
339 343 0
340 -130 0
-130 -344 0
-130 4 0
341 4 0
341 345 0
-70 346 0
347 -225 0
-347 225 0
347 -348 0
-347 348 0
349 -229 0
350 -234 0
-350 234 0
-347 -351 0
349 -76 0
-76 352 0
-350 -353 0
351 354 0
-351 -354 0
353 355 0
-353 -355 0
-354 -14 0
-147 356 0
-147 -14 0
-355 -14 0
-221 -357 0
-221 -21 0
-358 -21 0
359 357 0
-359 -357 0
360 -146 0
360 -78 0
361 -78 0
-146 362 0
-363 -364 0
365 -364 0
363 -366 0
-365 -366 0
365 367 0
365 368 0
365 369 0
365 370 0
371 -372 0
371 -373 0
371 -374 0
363 375 0
363 376 0
363 377 0
363 378 0
379 -370 0
-379 370 0
379 -380 0
-379 380 0
379 -381 0
-379 381 0
379 -382 0
-379 382 0
383 -374 0
383 -384 0
383 -385 0
386 -378 0
-386 378 0
386 -387 0
-386 387 0
386 -388 0
-386 388 0
386 -389 0
-386 389 0
379 240 0
-379 -240 0
369 258 0
369 311 0
369 278 0
373 -262 0
373 -313 0
373 -283 0
377 266 0
377 315 0
377 288 0
390 -368 0
-390 368 0
390 -391 0
-390 391 0
392 -393 0
394 -376 0
-394 376 0
394 -395 0
-394 395 0
390 381 0
390 257 0
390 277 0
390 396 0
392 -384 0
392 -261 0
392 -282 0
394 388 0
394 265 0
394 287 0
394 397 0
397 342 0
-397 -342 0
398 -367 0
-398 367 0
398 -399 0
-398 399 0
398 -400 0
-398 400 0
401 -372 0
401 -402 0
403 -375 0
-403 375 0
403 -404 0
-403 404 0
403 -405 0
-403 405 0
398 348 0
-398 -348 0
-406 -407 0
408 -407 0
406 -409 0
-408 -409 0
408 256 0
408 410 0
408 380 0
408 399 0
411 -260 0
411 -412 0
406 264 0
406 413 0
406 387 0
406 404 0
414 -410 0
-414 410 0
414 -415 0
-414 415 0
416 -413 0
-416 413 0
416 -417 0
-416 417 0
414 418 0
-414 -418 0
416 419 0
-416 -419 0
-418 -239 0
-418 -279 0
420 -242 0
420 -284 0
-419 -244 0
-419 -289 0
421 391 0
421 415 0
421 422 0
421 400 0
423 -393 0
423 -424 0
423 -402 0
425 395 0
425 417 0
425 426 0
425 405 0
422 382 0
422 324 0
422 280 0
422 306 0
424 -385 0
424 -326 0
424 -285 0
424 -427 0
426 389 0
426 328 0
426 290 0
426 308 0
-27 25 26 0
27 -25 28 0
27 -428 25 0
-27 -428 -25 0
32 -35 38 0
-32 -35 -38 0
31 -34 37 0
-31 -34 -37 0
30 -33 36 0
-30 -33 -36 0
60 -78 95 0
-60 -78 -95 0
59 -77 94 0
-59 -77 -94 0
58 -76 93 0
-58 -76 -93 0
57 -75 92 0
-57 -75 -92 0
55 -74 90 0
-55 -74 -90 0
53 -72 89 0
-53 -72 -89 0
52 -71 88 0
-52 -71 -88 0
50 -69 87 0
-50 -69 -87 0
48 -67 86 0
-48 -67 -86 0
47 -66 85 0
-47 -66 -85 0
46 -65 84 0
-46 -65 -84 0
45 -64 83 0
-45 -64 -83 0
44 -63 82 0
-44 -63 -82 0
43 -62 81 0
-43 -62 -81 0
41 -61 79 0
-41 -61 -79 0
-123 121 122 0
123 -121 124 0
127 -130 133 0
-127 -130 -133 0
126 -129 132 0
-126 -129 -132 0
139 -146 152 0
-139 -146 -152 0
138 -144 150 0
-138 -144 -150 0
-158 -161 160 0
-156 -158 155 0
-158 155 160 0
159 -158 -161 0
154 -156 -158 0
154 159 -158 0
161 -157 -160 0
156 -155 -157 0
156 161 -157 0
159 -157 -160 0
154 -155 -157 0
154 159 -157 0
135 -140 148 0
-135 -140 -148 0
-156 -429 -174 0
156 429 162 0
156 174 162 0
156 -158 161 0
-156 -158 -161 0
-161 -430 -176 0
161 430 164 0
161 176 164 0
-162 -168 -172 0
162 -163 164 0
-162 -163 -164 0
-164 -170 -173 0
-112 -48 -67 0
171 112 86 0
-178 -180 -183 0
-182 -179 -180 0
-178 -182 -180 0
-177 -180 -183 0
-181 -179 -180 0
-177 -181 -180 0
155 -157 160 0
-155 -157 -160 0
-179 -431 -184 0
-179 -184 -432 0
-179 -433 -184 0
179 -180 183 0
-179 -180 -183 0
-183 -434 -186 0
-183 -433 -186 0
192 184 190 0
-192 -184 -187 0
-184 -190 -187 0
184 -185 186 0
-184 -185 -186 0
193 186 191 0
-193 -186 -188 0
-186 -191 -188 0
190 97 57 0
-97 -75 -92 0
-194 -32 -35 0
193 194 38 0
-435 -198 -436 0
435 198 200 0
198 436 200 0
198 -201 199 0
-198 -201 -199 0
-437 -199 -438 0
437 199 203 0
199 438 203 0
-200 -207 -205 0
200 -202 203 0
-200 -202 -203 0
-203 -208 -206 0
209 159 0
211 216 214 0
-211 -216 -212 0
-211 -214 -212 0
211 -439 210 0
-211 -439 -210 0
210 218 215 0
-210 -218 -213 0
-210 -215 -213 0
214 117 46 0
-117 -65 -84 0
220 222 221 0
-224 -233 -221 0
-222 -224 -358 0
-224 -221 -358 0
-227 -232 -237 0
-236 -228 -232 0
-227 -236 -232 0
-226 -232 -237 0
-235 -228 -232 0
-226 -235 -232 0
-225 -232 -237 0
-234 -228 -232 0
-225 -234 -232 0
-231 -236 -228 0
-227 -231 -237 0
-231 -228 -237 0
-226 -231 -236 0
-235 -227 -231 0
-226 -235 -231 0
-231 -236 -225 0
-227 -231 -234 0
-231 -225 -234 0
-230 -235 -228 0
-226 -230 -237 0
-230 -228 -237 0
-230 -235 -227 0
-226 -230 -236 0
-230 -227 -236 0
-230 -235 -225 0
-226 -230 -234 0
-230 -225 -234 0
-229 -234 -228 0
-225 -229 -237 0
-229 -228 -237 0
-227 -229 -234 0
-236 -225 -229 0
-227 -236 -229 0
-226 -229 -234 0
-235 -225 -229 0
-226 -235 -229 0
222 -224 233 0
-222 -224 -233 0
239 -242 244 0
-239 -242 -244 0
228 -232 237 0
-228 -232 -237 0
-238 -138 -247 0
-246 -144 -150 0
-248 -138 -144 0
-246 -248 -144 0
238 -241 243 0
-238 -241 -243 0
-243 -150 -247 0
-249 -440 0
249 55 440 0
-250 -440 0
250 90 440 0
-227 -251 -252 0
227 -231 236 0
-227 -231 -236 0
-236 -253 -254 0
258 -262 266 0
-258 -262 -266 0
257 -261 265 0
-257 -261 -265 0
256 -260 264 0
-256 -260 -264 0
255 -259 263 0
-255 -259 -263 0
-267 -441 0
-267 -59 -271 0
-270 -77 -94 0
-272 -59 -77 0
-270 -272 -77 0
267 -268 269 0
-267 -268 -269 0
-269 -441 0
-269 -94 -271 0
273 275 8 0
-274 -151 -275 0
274 151 8 0
274 275 8 0
280 -285 290 0
-280 -285 -290 0
279 -284 289 0
-279 -284 -289 0
278 -283 288 0
-278 -283 -288 0
277 -282 287 0
-277 -282 -287 0
-276 -292 -291 0
276 -281 286 0
-276 -281 -286 0
-286 -294 -293 0
292 295 2 0
-294 -149 -295 0
294 149 2 0
294 295 2 0
-291 -442 0
-291 -54 -296 0
291 54 442 0
291 296 442 0
-293 -442 0
293 296 442 0
-301 -303 304 0
-298 -301 299 0
-301 299 304 0
-301 -303 302 0
-298 -301 297 0
-301 297 302 0
-300 -302 304 0
-297 -300 299 0
-300 299 304 0
303 -300 -302 0
298 -297 -300 0
298 303 -300 0
226 -230 235 0
-226 -230 -235 0
306 -427 308 0
-306 -427 -308 0
311 -313 315 0
-311 -313 -315 0
-310 -443 0
-310 -52 -317 0
-316 -71 -88 0
-318 -52 -71 0
-316 -318 -71 0
310 -312 314 0
-310 -312 -314 0
-314 -443 0
-314 -88 -317 0
316 128 320 0
-316 -128 -319 0
-316 -319 -320 0
-318 -319 -320 0
-298 -335 -444 0
298 444 321 0
298 335 321 0
298 -301 303 0
-298 -301 -303 0
-303 -337 -445 0
303 445 322 0
303 337 322 0
324 -326 328 0
-324 -326 -328 0
-323 -446 0
-323 -43 -330 0
-329 -62 -81 0
-331 -43 -62 0
-329 -331 -62 0
323 -325 327 0
-323 -325 -327 0
-327 -446 0
-327 -81 -330 0
-332 -137 -334 0
332 137 10 0
332 10 334 0
333 10 334 0
-335 -336 -136 0
335 24 136 0
335 336 24 0
337 336 24 0
-444 -447 0
-444 -49 -338 0
444 49 447 0
444 338 447 0
-445 -447 0
445 338 447 0
297 -300 302 0
-297 -300 -302 0
339 127 344 0
345 -130 -133 0
343 -127 -130 0
343 345 -130 0
339 -340 341 0
-339 -340 -341 0
341 133 344 0
-343 -448 0
-343 -51 -346 0
343 448 51 0
343 448 346 0
-345 -448 0
345 448 346 0
225 -229 234 0
-225 -229 -234 0
-347 -449 0
-347 -58 -352 0
-351 -76 -93 0
-353 -58 -76 0
-351 -353 -76 0
347 -349 350 0
-347 -349 -350 0
-350 -449 0
-350 -93 -352 0
354 14 356 0
-355 -153 -356 0
355 153 14 0
355 14 356 0
-221 -450 0
-358 -450 0
-359 -139 -362 0
-359 -361 -60 0
359 361 362 0
359 60 362 0
359 139 361 0
359 139 60 0
359 -360 451 0
-359 -360 -451 0
-451 -152 -362 0
-451 -361 -95 0
451 361 362 0
451 95 362 0
451 152 361 0
451 152 95 0
-365 363 364 0
365 -363 366 0
377 -374 -378 0
369 -370 -374 0
369 377 -374 0
-374 -378 376 0
-370 -374 368 0
-374 368 376 0
-374 -378 375 0
-370 -374 367 0
-374 367 375 0
-373 -377 378 0
-369 -373 370 0
-373 370 378 0
-373 -377 376 0
-369 -373 368 0
-373 368 376 0
-373 -377 375 0
-369 -373 367 0
-373 367 375 0
378 -372 -375 0
370 -367 -372 0
370 378 -372 0
377 -372 -375 0
369 -367 -372 0
369 377 -372 0
-372 -375 376 0
-367 -372 368 0
-372 368 376 0
365 -371 363 0
-365 -371 -363 0
382 -385 389 0
-382 -385 -389 0
381 -384 388 0
-381 -384 -388 0
370 -374 378 0
-370 -374 -378 0
379 -383 386 0
-379 -383 -386 0
-283 -288 315 0
-278 -283 311 0
-283 311 315 0
266 -283 -288 0
258 -278 -283 0
258 266 -283 0
288 -313 -315 0
278 -311 -313 0
278 288 -313 0
266 -313 -315 0
258 -311 -313 0
258 266 -313 0
-262 -266 288 0
-258 -262 278 0
-262 278 288 0
-262 -266 315 0
-258 -262 311 0
-262 311 315 0
369 -373 377 0
-369 -373 -377 0
391 -393 395 0
-391 -393 -395 0
397 -282 -287 0
396 -277 -282 0
396 397 -282 0
265 -282 -287 0
257 -277 -282 0
257 265 -282 0
388 -282 -287 0
381 -277 -282 0
381 388 -282 0
397 -261 -265 0
396 -257 -261 0
396 397 -261 0
-261 -265 287 0
-257 -261 277 0
-261 277 287 0
388 -261 -265 0
381 -257 -261 0
381 388 -261 0
397 -384 -388 0
396 -381 -384 0
396 397 -384 0
-384 -388 287 0
-381 -384 277 0
-384 277 287 0
-384 -388 265 0
-381 -384 257 0
-384 257 265 0
390 -392 394 0
-390 -392 -394 0
400 -402 405 0
-400 -402 -405 0
367 -372 375 0
-367 -372 -375 0
398 -401 403 0
-398 -401 -403 0
-408 406 407 0
408 -406 409 0
404 -412 -413 0
399 -410 -412 0
399 404 -412 0
387 -412 -413 0
380 -410 -412 0
380 387 -412 0
-412 -413 264 0
-410 -412 256 0
-412 256 264 0
404 -260 -264 0
399 -256 -260 0
399 404 -260 0
387 -260 -264 0
380 -256 -260 0
380 387 -260 0
413 -260 -264 0
410 -256 -260 0
410 413 -260 0
408 -411 406 0
-408 -411 -406 0
410 -412 413 0
-410 -412 -413 0
418 239 279 0
-239 -284 -289 0
-244 -279 -284 0
-239 -244 -284 0
-242 -244 -279 0
-239 -242 -289 0
-242 -279 -289 0
418 -420 419 0
-418 -420 -419 0
419 244 289 0
426 -402 -405 0
422 -400 -402 0
422 426 -402 0
417 -402 -405 0
415 -400 -402 0
415 417 -402 0
395 -402 -405 0
391 -400 -402 0
391 395 -402 0
-424 -426 405 0
-422 -424 400 0
-424 400 405 0
-424 -426 417 0
-422 -424 415 0
-424 415 417 0
-424 -426 395 0
-422 -424 391 0
-424 391 395 0
-393 -395 405 0
-391 -393 400 0
-393 400 405 0
426 -393 -395 0
422 -391 -393 0
422 426 -393 0
-393 -395 417 0
-391 -393 415 0
-393 415 417 0
421 -423 425 0
-421 -423 -425 0
290 -427 -308 0
280 -306 -427 0
280 290 -427 0
-427 -308 328 0
-306 -427 324 0
-427 324 328 0
389 -427 -308 0
382 -306 -427 0
382 389 -427 0
-285 -290 308 0
-280 -285 306 0
-285 306 308 0
-285 -290 328 0
-280 -285 324 0
-285 324 328 0
389 -285 -290 0
382 -280 -285 0
382 389 -285 0
308 -326 -328 0
306 -324 -326 0
306 308 -326 0
290 -326 -328 0
280 -324 -326 0
280 290 -326 0
389 -326 -328 0
382 -324 -326 0
382 389 -326 0
-385 -389 308 0
-382 -385 306 0
-385 306 308 0
-385 -389 290 0
-382 -385 280 0
-385 280 290 0
-385 -389 328 0
-382 -385 324 0
-385 324 328 0
422 -424 426 0
-422 -424 -426 0
-154 -156 -135 -155 0
-159 -161 -148 -160 0
-429 -174 162 -163 0
-430 -176 -163 164 0
162 172 166 165 0
162 168 166 165 0
164 173 166 167 0
164 170 166 167 0
155 178 177 179 0
160 182 181 183 0
179 431 433 432 0
-435 -436 200 -202 0
-437 -438 -202 203 0
200 207 204 108 0
200 204 205 108 0
203 208 204 110 0
203 204 206 110 0
238 246 138 245 0
238 246 247 245 0
243 248 150 245 0
243 248 247 245 0
-74 -440 0
267 270 441 59 0
267 270 441 271 0
-441 -77 0
269 272 441 94 0
269 272 441 271 0
-73 -442 0
-226 -298 -297 -299 0
-235 -303 -302 -304 0
310 316 443 52 0
310 316 443 317 0
-443 -71 0
314 318 443 88 0
314 318 443 317 0
323 329 43 446 0
323 329 330 446 0
-62 -446 0
327 331 81 446 0
327 331 330 446 0
-68 -447 0
-339 -343 -127 -4 0
-339 -343 -344 -4 0
-341 -345 -133 -4 0
-341 -345 -344 -4 0
-448 -70 0
347 351 58 449 0
347 351 352 449 0
-76 -449 0
350 353 93 449 0
350 353 352 449 0
221 357 21 450 0
-139 -78 -95 -362 0
-152 -60 -78 -362 0
-139 -152 -78 -362 0
-146 -152 -361 -60 0
-139 -146 -361 -95 0
-146 -361 -60 -95 0
-369 -258 -278 -311 0
-377 -266 -288 -315 0
178 195 104 23 196 0
182 197 106 23 196 0
222 226 227 225 228 0
233 235 236 234 237 0
-365 -369 -370 -367 -368 0
-363 -377 -378 -375 -376 0
-390 -396 -381 -257 -277 0
-394 -397 -388 -265 -287 0
-408 -380 -399 -410 -256 0
-406 -387 -404 -413 -264 0
-421 -422 -391 -415 -400 0
-425 -426 -395 -417 -405 0
-422 -382 -280 -306 -324 0
-426 -389 -290 -308 -328 0
245 440 0
249 250 -74 0
-249 -250 -74 0
273 274 -145 0
-273 -274 -145 0
354 355 -147 0
-354 -355 -147 0
332 333 -142 0
-332 -333 -142 0
-9 -452 0
-452 -446 0
9 452 446 0
-196 336 0
196 -336 0
433 -362 0
19 -433 362 0
-19 433 0
3 166 0
-3 -166 -344 0
166 344 0
-453 -447 0
-453 -22 0
453 22 447 0
428 123 121 411 371 423 223 0
428 -123 -121 411 371 423 223 0
123 121 -129 130 131 0
-123 -121 -129 130 131 0
454 18 0
-454 -18 0
204 320 0
455 456 0
-455 -456 0
109 457 0
-109 -457 0
-352 98 0
352 -98 0
-11 -449 0
-11 -13 0
11 13 449 0
428 -33 34 35 0
-61 42 80 39 62 63 64 65 66 67 68 69 70 71 72 73 74 458 0
-61 -42 -80 39 62 63 64 65 66 67 68 69 70 71 72 73 74 458 0
401 -349 229 0
-356 189 0
356 -189 0
-119 271 0
119 -271 0
-101 361 0
101 -361 0
383 -241 232 242 0
-19 -17 0
-17 -450 0
19 17 450 0
61 -458 0
56 91 75 76 77 78 -458 0
-56 -91 75 76 77 78 -458 0
-140 129 141 142 143 144 145 146 147 0
-175 275 0
175 -275 0
-114 346 0
114 -346 0
459 456 0
-459 -456 0
107 457 0
-107 -457 0
-360 -21 0
-360 -450 0
-460 -107 0
-461 -109 0
462 460 0
-462 -460 0
463 461 0
-463 -461 0
-102 -454 0
102 454 101 20 0
281 -143 0
-294 -143 293 0
-292 -143 291 0
-143 291 293 0
292 294 -143 0
-292 -294 -143 0
-464 -448 0
-465 -441 0
-465 -5 0
465 5 441 0
-1 -456 0
-456 -442 0
1 456 442 0
-325 301 326 0
-325 326 321 322 0
-325 326 -321 -322 0
-325 -335 -444 326 321 0
-325 -337 -445 326 322 0
-103 -466 0
-105 -467 0
223 -360 0
-222 -358 -360 0
-233 -221 -360 0
-222 -233 -360 0
221 358 -360 0
-221 -358 -360 0
-249 -55 -74 0
-250 -74 -90 0
249 -250 -90 0
-249 250 -55 0
281 -73 0
294 -293 -73 0
292 -291 -73 0
292 294 -73 0
291 293 -73 0
-291 -293 -73 0
-259 231 260 261 262 0
-259 260 261 262 253 -254 0
-259 260 261 262 251 -252 0
-259 260 261 262 251 253 0
-259 260 261 262 252 254 0
-259 260 261 262 -252 -254 0
340 -70 0
-70 4 0
343 345 -70 0
-343 -345 -70 0
-345 -70 133 344 0
-343 -70 127 344 0
-70 127 133 344 0
312 -131 0
316 318 -131 0
-316 -318 -131 0
-318 -52 -317 -131 0
-316 -88 -317 -131 0
-52 -88 -317 -131 0
-443 -131 0
-116 -459 0
-468 -455 0
-212 -459 0
-213 -455 0
231 -281 282 283 284 285 0
-281 282 283 284 285 -253 254 0
-281 282 283 284 285 -251 252 0
-281 282 283 284 285 252 254 0
-281 282 283 284 285 251 253 0
-281 282 283 284 285 -251 -253 0
241 -74 0
-245 -74 0
246 248 -74 0
-246 -248 -74 0
-248 -138 -247 -74 0
-246 -150 -247 -74 0
-138 -150 -247 -74 0
349 -147 0
351 353 -147 0
-351 -353 -147 0
-353 -58 -147 -352 0
-351 -93 -147 -352 0
-58 -93 -147 -352 0
-147 -449 0
268 -145 0
270 272 -145 0
-270 -272 -145 0
-272 -59 -271 -145 0
-270 -94 -271 -145 0
-59 -94 -271 -145 0
-441 -145 0
-436 -469 0
-438 -470 0
-471 -469 0
-472 -470 0
325 -142 0
329 331 -142 0
-329 -331 -142 0
-331 -43 -142 -330 0
-329 -81 -142 -330 0
-43 -81 -142 -330 0
-142 -446 0
-460 -207 -53 0
460 207 0
460 -53 -72 0
-207 -53 -72 0
-463 -206 -37 0
463 206 0
463 -34 -37 0
-206 -34 -37 0
-462 -205 -31 0
462 205 0
462 -31 -34 0
-205 -31 -34 0
462 463 -34 0
-461 -208 -89 0
461 208 0
461 -72 -89 0
-208 -72 -89 0
460 461 -72 0
-183 -454 -186 0
183 454 434 433 0
-61 -23 39 62 63 64 65 66 67 68 69 70 71 72 73 74 458 0
-61 39 62 63 64 65 66 67 -196 68 69 70 71 72 73 74 458 0
-61 -197 -104 39 62 63 64 65 66 67 68 69 70 71 72 73 74 458 0
-61 -195 -106 39 62 63 64 65 66 67 68 69 70 71 72 73 74 458 0
-61 -104 -106 39 62 63 64 65 66 67 68 69 70 71 72 73 74 458 0
-61 195 197 39 62 63 64 65 66 67 68 69 70 71 72 73 74 458 0
-61 -195 -197 39 62 63 64 65 66 67 68 69 70 71 72 73 74 458 0
-120 465 0
-176 465 0
120 -465 6 119 0
-176 120 6 119 0
176 -465 7 175 0
176 -120 7 175 0
-105 -453 0
-103 -453 0
105 453 0
-103 105 0
103 453 0
103 -105 0
-3 -115 0
-464 -115 0
3 115 0
3 -464 0
464 115 448 0
-3 464 448 0
-148 -137 -142 0
-148 -333 -334 0
148 137 -142 0
-333 137 -142 0
148 333 10 0
333 -137 -142 0
211 -154 0
-209 211 -439 0
-211 154 0
-209 -439 154 0
209 -439 -154 0
209 -211 -439 0
-358 451 0
-360 451 -357 0
358 -451 21 450 0
358 -360 -357 0
-358 -360 357 0
-360 -451 357 0
-18 -432 0
-100 -432 0
18 432 0
-100 18 0
100 432 101 20 0
100 -18 101 20 0
-464 -167 0
-111 -167 0
464 167 0
464 -111 0
111 167 115 114 0
-464 111 114 0
-148 -136 -141 0
-148 -337 -336 0
148 136 -141 0
-337 136 -141 0
148 337 24 0
337 -136 -141 0
437 -472 -82 0
-437 -472 82 0
437 472 82 0
-437 472 -82 0
-473 -460 0
-473 -461 0
-79 -51 -70 0
-79 -345 -346 0
79 51 -70 0
-345 51 -70 0
79 345 448 0
345 -51 -70 0
-473 -457 0
-443 -457 0
473 443 457 0
453 452 457 17 11 0
453 452 -473 17 11 0
453 452 -443 17 11 0
435 -471 -44 0
-435 -471 44 0
435 471 44 0
-435 471 -44 0
-63 201 0
-437 -63 438 0
-435 -63 436 0
-63 436 438 0
-437 -63 -200 0
-435 -63 -203 0
-63 -200 -203 0
435 437 -63 0
-435 -437 -63 0
-96 12 0
-187 12 0
96 98 15 -12 0
96 -187 98 15 0
187 -12 189 16 0
-96 187 189 16 0
-132 -128 -131 0
-132 -318 -319 0
132 128 -131 0
-318 128 -131 0
132 318 320 0
318 -128 -131 0
-436 -9 0
-438 -9 0
436 -438 469 0
-436 438 470 0
-439 140 0
-439 -159 161 0
-439 -154 156 0
-439 156 161 0
-439 -159 160 0
-439 -154 155 0
-439 155 160 0
-439 154 159 0
-439 -154 -159 0
27 30 0
27 -33 -29 34 35 0
-27 -30 0
-30 -33 -29 34 35 0
-27 -33 29 34 35 0
30 -33 29 34 35 0
429 -118 -47 0
-429 -118 47 0
429 118 47 0
-429 118 -47 0
-188 12 0
-99 12 0
188 -12 189 16 0
-99 188 189 16 0
99 98 15 -12 0
99 -188 98 15 0
-102 434 91 0
-102 -434 -91 0
102 434 -91 0
102 -434 91 0
-470 -452 0
-469 -452 0
470 452 0
-469 470 0
469 452 0
469 -470 0
-99 -194 0
99 194 0
-116 -296 0
-468 -296 0
116 -468 459 0
-116 468 455 0
158 -66 0
-430 176 -66 0
-429 174 -66 0
174 176 -66 0
-430 -162 -66 0
-429 -164 -66 0
-162 -164 -66 0
429 430 -66 0
-429 -430 -66 0
121 132 0
121 -129 -125 130 131 0
-121 -132 0
-129 -132 -125 130 131 0
-121 -129 125 130 131 0
-129 132 125 130 131 0
-471 -330 0
-472 -330 0
471 -472 469 0
-471 472 470 0
-135 -143 -149 0
-135 -292 -295 0
135 -143 149 0
-292 -143 149 0
135 292 2 0
292 -143 -149 0
-467 197 80 0
-467 -197 -80 0
467 197 -80 0
467 -197 80 0
-396 -339 0
-339 -340 -342 300 0
396 339 0
396 -340 -342 300 0
339 -340 342 300 0
-396 -340 342 300 0
-212 -295 0
-213 -295 0
212 -213 459 0
-212 213 455 0
-100 431 56 0
-100 -431 -56 0
100 431 -56 0
100 -431 56 0
-386 -243 0
-241 -243 232 242 -240 0
386 243 0
386 -241 232 242 -240 0
-241 243 232 242 240 0
-386 -241 232 242 240 0
-464 -165 0
-113 -165 0
464 165 0
464 -113 0
113 165 115 114 0
-464 113 114 0
310 305 0
-312 305 313 -309 0
-310 -305 0
-310 -312 313 -309 0
-312 -305 313 309 0
310 -312 313 309 0
-403 -350 0
-349 -350 229 -348 0
403 350 0
403 -349 229 -348 0
-349 350 229 348 0
-403 -349 229 348 0
-135 -145 -151 0
-135 -273 -275 0
135 -145 151 0
-273 -145 151 0
135 273 8 0
273 -145 -151 0
-135 -147 -153 0
-135 -354 -356 0
135 -147 153 0
-354 -147 153 0
135 354 14 0
354 -147 -153 0
-79 -49 -68 0
-79 -445 -338 0
79 49 -68 0
-445 49 -68 0
79 445 447 0
445 -49 -68 0
-466 195 42 0
-466 -195 -42 0
466 195 -42 0
466 -195 42 0
301 -141 0
-337 445 -141 0
-335 444 -141 0
444 445 -141 0
-337 -321 -141 0
-335 -322 -141 0
-321 -322 -141 0
335 337 -141 0
-335 -337 -141 0
135 126 0
-140 126 141 142 -134 143 144 145 146 147 0
-135 -126 0
-135 -140 141 142 -134 143 144 145 146 147 0
-140 -126 141 142 134 143 144 145 146 147 0
135 -140 141 142 134 143 144 145 146 147 0
-319 -204 -320 0
-473 -319 0
319 204 0
-473 204 0
473 319 0
473 -204 -320 0
-118 465 0
-174 465 0
118 -465 6 119 0
-174 118 6 119 0
174 -465 7 175 0
174 -118 7 175 0
-466 -22 0
-467 -22 0
103 466 -467 0
105 -466 467 0
430 -120 -85 0
-430 -120 85 0
430 120 85 0
-430 120 -85 0
301 -68 0
337 -445 -68 0
335 -444 -68 0
335 337 -68 0
-445 -321 -68 0
-444 -322 -68 0
-321 -322 -68 0
444 445 -68 0
-444 -445 -68 0
-79 -54 -73 0
-79 -293 -296 0
79 54 -73 0
-293 54 -73 0
79 293 442 0
293 -54 -73 0
41 30 0
30 -39 -40 0
-41 -30 0
-41 -39 -40 0
-30 -39 40 0
41 -39 40 0
-61 157 39 62 63 64 65 66 67 68 69 70 71 72 73 74 458 0
-61 -182 -179 39 62 63 64 65 66 67 68 69 70 71 72 73 74 458 0
-61 -178 -183 39 62 63 64 65 66 67 68 69 70 71 72 73 74 458 0
-61 -179 -183 39 62 63 64 65 66 67 68 69 70 71 72 73 74 458 0
-61 -182 -177 39 62 63 64 65 66 67 68 69 70 71 72 73 74 458 0
-61 -178 -181 39 62 63 64 65 66 67 68 69 70 71 72 73 74 458 0
-61 -177 -181 39 62 63 64 65 66 67 68 69 70 71 72 73 74 458 0
-61 178 182 39 62 63 64 65 66 67 68 69 70 71 72 73 74 458 0
-61 -178 -182 39 62 63 64 65 66 67 68 69 70 71 72 73 74 458 0
157 -201 0
-181 -179 -201 0
-177 -183 -201 0
-179 -183 -201 0
-178 -181 -201 0
-182 -177 -201 0
-178 -182 -201 0
177 181 -201 0
-177 -181 -201 0
202 -72 0
-72 -204 0
-208 -72 206 0
-207 -72 205 0
-72 205 206 0
-208 -72 -108 0
-207 -72 -110 0
-72 -108 -110 0
207 208 -72 0
-207 -208 -72 0
202 -34 0
-204 -34 0
208 -206 -34 0
207 -205 -34 0
207 208 -34 0
-206 -108 -34 0
-205 -110 -34 0
-108 -110 -34 0
205 206 -34 0
-205 -206 -34 0
180 75 76 77 78 -458 0
-433 75 76 77 78 -458 0
-434 -432 75 76 77 78 -458 0
-434 186 75 76 77 78 -458 0
-431 184 75 76 77 78 -458 0
184 186 75 76 77 78 -458 0
431 434 75 76 77 78 -458 0
-431 -434 75 76 77 78 -458 0
-454 -431 75 76 77 78 -458 0
-454 -432 75 76 77 78 -458 0
183 434 75 76 77 78 -458 0
183 -432 75 76 77 78 -458 0
392 -340 300 0
-397 -340 287 300 0
-396 -340 277 300 0
-340 277 287 300 0
-397 -340 265 300 0
-396 -340 257 300 0
-340 257 265 300 0
-397 -340 388 300 0
-396 -340 381 300 0
-340 381 388 300 0
396 397 -340 300 0
-396 -397 -340 300 0
411 -383 374 384 385 0
-383 374 380 387 384 385 0
-383 374 -380 -387 384 385 0
-383 374 -387 404 384 385 0
-383 374 -380 399 384 385 0
-383 374 399 404 384 385 0
-383 374 -387 413 384 385 0
-383 374 -380 410 384 385 0
-383 374 410 413 384 385 0
-383 374 -387 384 264 385 0
-383 374 -380 384 256 385 0
-383 374 384 256 264 385 0
411 -401 372 402 0
-401 372 399 404 402 0
-401 372 -399 -404 402 0
-401 387 372 -404 402 0
-401 380 372 -399 402 0
-401 380 387 372 402 0
-401 372 -404 413 402 0
-401 372 -399 410 402 0
-401 372 410 413 402 0
-401 372 -404 402 264 0
-401 372 -399 402 256 0
-401 372 402 256 264 0
371 -392 393 0
-392 378 -376 393 0
-392 370 -368 393 0
-392 370 378 393 0
-392 377 -376 393 0
-392 369 -368 393 0
-392 369 377 393 0
-392 375 -376 393 0
-392 367 -368 393 0
-392 367 375 393 0
-392 368 376 393 0
-392 -368 -376 393 0
-468 -215 0
-468 -46 -65 0
-468 -117 -65 0
468 215 84 0
215 -65 84 0
215 -117 -65 0
-468 -219 -83 0
468 219 0
468 -64 -83 0
-219 -64 -83 0
-116 -217 -45 0
116 217 0
116 -45 -64 0
-217 -45 -64 0
116 468 -64 0
439 -65 0
-216 -215 -65 0
-218 -214 -65 0
-216 -218 -65 0
-215 213 -65 0
-214 212 -65 0
212 213 -65 0
214 215 -65 0
-214 -215 -65 0
217 219 -64 0
-217 -219 -64 0
439 -64 0
-218 -214 -64 0
-216 -215 -64 0
-214 -215 -64 0
-218 213 -64 0
-216 212 -64 0
212 213 -64 0
216 218 -64 0
-216 -218 -64 0
-113 -172 -50 0
113 172 0
113 -50 -69 0
-172 -50 -69 0
-113 -169 0
-113 -67 -86 0
-113 -112 -67 0
113 169 48 0
169 48 -67 0
169 -112 -67 0
-111 -173 -87 0
111 173 0
111 -69 -87 0
-173 -69 -87 0
113 111 -69 0
41 -471 0
79 463 0
163 -69 0
-69 -166 0
170 -173 -69 0
168 -172 -69 0
168 170 -69 0
-173 -69 -165 0
-172 -69 -167 0
-69 -165 -167 0
172 173 -69 0
-172 -173 -69 0
169 171 -67 0
-169 -171 -67 0
163 -67 0
-67 -166 0
-170 -67 173 0
-168 -67 172 0
-67 172 173 0
-170 -67 -165 0
-168 -67 -167 0
-67 -165 -167 0
168 170 -67 0
-168 -170 -67 0
220 -223 -358 0
220 -223 -233 0
-220 -223 233 358 0
421 425 -220 233 358 26 28 122 124 364 366 407 409 0
-421 -425 -220 233 358 26 28 122 124 364 366 407 409 0
421 425 220 -358 26 28 122 124 364 366 407 409 0
421 425 220 -233 26 28 122 124 364 366 407 409 0
-421 -425 220 -358 26 28 122 124 364 366 407 409 0
-421 -425 220 -233 26 28 122 124 364 366 407 409 0
305 307 -427 0
-305 -307 -427 0
-312 305 307 313 0
-312 -305 -307 313 0
230 -312 427 313 0
-312 303 -304 427 313 0
-312 298 -299 427 313 0
-312 298 303 427 313 0
-312 302 -304 427 313 0
-312 297 -299 427 313 0
-312 297 302 427 313 0
-312 299 304 427 313 0
-312 -299 -304 427 313 0
41 462 0
79 -472 0
192 32 -35 0
192 -194 -35 0
-96 192 32 0
96 -192 0
96 -35 -38 0
96 -194 -35 0
79 -102 0
79 -99 0
79 -467 0
79 -468 0
79 -111 0
79 -120 0
-79 120 468 111 467 472 102 99 -463 0
-99 -191 0
-99 -57 -75 0
-99 -97 -75 0
99 191 92 0
191 -75 92 0
191 -97 -75 0
41 -118 0
41 -116 0
41 -113 0
41 -466 0
41 -100 0
41 -96 0
-41 118 116 113 466 471 100 96 -462 0
-35 185 0
-193 -35 -190 0
-192 -35 -191 0
-35 -190 -191 0
-193 -35 188 0
-192 -35 187 0
-35 187 188 0
192 193 -35 0
-192 -193 -35 0
185 -75 0
-192 -191 -75 0
-193 -190 -75 0
-192 -193 -75 0
-191 -75 188 0
-190 -75 187 0
-75 187 188 0
190 191 -75 0
-190 -191 -75 0
414 416 -412 0
-414 -416 -412 0
414 416 -420 0
-414 -416 -420 0
423 412 -420 0
412 415 417 -420 0
412 -415 -417 -420 0
412 -417 405 -420 0
412 -415 400 -420 0
412 400 405 -420 0
426 412 -417 -420 0
422 412 -415 -420 0
422 426 412 -420 0
395 412 -417 -420 0
391 412 -415 -420 0
391 395 412 -420 0
-116 -1 0
-468 -1 0
116 459 1 296 0
468 455 1 296 0
-471 -9 0
-472 -9 0
471 9 469 330 0
472 9 470 330 0
-436 -334 0
-438 -334 0
436 9 469 334 0
438 9 470 334 0
-212 -1 0
-213 -1 0
212 459 1 295 0
213 455 1 295 0
-460 -317 0
-461 -317 0
460 -461 107 0
473 460 107 317 0
-460 461 109 0
473 461 109 317 0
-466 -338 0
-467 -338 0
103 466 22 338 0
105 467 22 338 0
